projected/problems_b25_r0_d7_m100_s666/_DIMACS/b25_d7_r0_s666_071.cnf
p cnf 225 357 25
c p show 1 2 3 4 5 6 7 8 9 10 11 12 13 14 15 16 17 18 19 20 21 22 23 24 25
-160 12 -4 0
-161 1 0
-161 5 0
-162 -5 0
-162 -1 0
-163 162 161 0
-164 163 160 0
-165 -14 10 0
-166 15 1 0
-167 166 165 0
-168 -15 0
-168 -1 0
-169 14 0
-169 -10 0
-170 169 168 0
-171 170 0
-171 167 0
-172 171 164 0
-173 -10 0
-173 -7 0
-174 -20 -4 0
-175 174 0
-175 173 0
-176 20 0
-176 -11 0
-177 -11 -21 0
-178 177 176 0
-179 178 0
-179 175 0
-180 179 0
-180 172 0
-181 3 0
-181 -5 0
-182 5 0
-182 -3 0
-183 182 181 0
-184 24 0
-184 1 0
-185 184 0
-185 183 0
-186 15 22 0
-187 16 2 0
-188 187 186 0
-189 188 185 0
-190 -24 0
-190 -6 0
-191 6 0
-191 24 0
-192 191 190 0
-193 4 0
-193 -7 0
-194 193 192 0
-195 -20 0
-195 21 0
-196 16 0
-196 25 0
-197 196 195 0
-198 197 0
-198 194 0
-199 198 0
-199 189 0
-200 199 0
-200 180 0
-201 -3 5 0
-202 -5 3 0
-203 202 0
-203 201 0
-204 -24 -1 0
-205 204 203 0
-206 -15 0
-206 -22 0
-207 -16 0
-207 -2 0
-208 207 0
-208 206 0
-209 208 0
-209 205 0
-210 24 6 0
-211 -6 -24 0
-212 211 0
-212 210 0
-213 -4 7 0
-214 213 0
-214 212 0
-215 20 -21 0
-216 -16 -25 0
-217 216 0
-217 215 0
-218 217 214 0
-219 218 209 0
-220 -12 0
-220 4 0
-221 -1 -5 0
-222 5 1 0
-223 222 0
-223 221 0
-224 223 0
-224 220 0
-225 168 0
-225 169 0
-26 165 0
-26 166 0
-27 26 225 0
-28 27 0
-28 224 0
-29 10 7 0
-30 20 0
-30 4 0
-31 30 29 0
-32 -20 11 0
-33 11 0
-33 21 0
-34 33 0
-34 32 0
-63 34 31 0
-35 63 28 0
-36 35 0
-36 219 0
-37 36 200 0
-38 4 0
-38 -8 0
-39 13 0
-39 -13 0
-40 39 38 0
-41 21 0
-41 -2 0
-42 18 0
-42 -2 0
-43 42 41 0
-44 43 40 0
-45 -11 0
-45 -25 0
-46 25 0
-46 11 0
-47 46 45 0
-48 -19 15 0
-49 48 0
-49 47 0
-50 11 -22 0
-51 2 0
-51 -5 0
-52 51 50 0
-53 52 0
-53 49 0
-54 53 44 0
-55 9 13 0
-56 13 12 0
-57 56 55 0
-58 -13 3 0
-59 10 0
-59 -4 0
-60 59 58 0
-61 60 57 0
-62 6 0
-62 22 0
-64 20 17 0
-65 64 62 0
-66 -20 0
-66 -17 0
-67 -6 -22 0
-68 67 66 0
-69 68 0
-69 65 0
-70 9 7 0
-71 -7 -9 0
-72 71 0
-72 70 0
-73 -22 4 0
-74 73 72 0
-75 74 69 0
-76 75 61 0
-77 76 54 0
-78 77 37 0
-79 14 0
-79 -11 0
-80 -17 24 0
-81 80 79 0
-82 21 13 0
-83 -16 0
-83 -10 0
-84 83 0
-84 82 0
-85 16 10 0
-86 -21 0
-86 -13 0
-87 86 0
-87 85 0
-88 87 84 0
-89 88 81 0
-90 16 11 0
-91 -11 -16 0
-92 91 0
-92 90 0
-93 11 5 0
-94 93 0
-94 92 0
-95 -5 -25 0
-96 11 0
-96 19 0
-97 96 0
-97 95 0
-98 97 0
-98 94 0
-99 98 0
-99 89 0
-100 -11 0
-100 13 0
-101 14 0
-101 19 0
-102 101 100 0
-103 12 0
-103 24 0
-104 21 -1 0
-105 104 0
-105 103 0
-106 105 0
-106 102 0
-107 24 14 0
-108 -23 0
-108 -9 0
-109 108 107 0
-110 -6 0
-110 7 0
-111 15 0
-111 -12 0
-112 111 0
-112 110 0
-113 112 0
-113 109 0
-114 113 0
-114 106 0
-115 114 99 0
-116 20 5 0
-117 -5 -20 0
-118 117 0
-118 116 0
-119 7 0
-119 -13 0
-120 119 0
-120 118 0
-121 -23 0
-121 10 0
-122 12 0
-122 2 0
-123 122 121 0
-124 123 120 0
-125 -7 -6 0
-126 6 7 0
-127 126 0
-127 125 0
-128 -21 -4 0
-129 128 127 0
-130 21 0
-130 4 0
-131 7 0
-131 6 0
-132 -6 0
-132 -7 0
-133 132 131 0
-134 133 130 0
-135 134 0
-135 129 0
-136 -6 0
-136 -3 0
-137 3 0
-137 6 0
-138 137 136 0
-139 -2 0
-139 22 0
-140 139 0
-140 138 0
-141 140 0
-141 135 0
-142 141 124 0
-143 -4 0
-143 -3 0
-144 -6 0
-144 6 0
-145 144 0
-145 143 0
-146 2 11 0
-147 -2 -20 0
-148 147 146 0
-149 148 145 0
-150 9 10 0
-151 -12 0
-151 -5 0
-152 151 0
-152 150 0
-153 -21 24 0
-154 -17 0
-154 -24 0
-155 154 153 0
-156 155 152 0
-157 156 0
-157 149 0
-158 157 142 0
-159 158 0
-159 115 0
159 0
78 0
-203 -183 0
-184 -204 0
-204 -184 0
-205 -185 0
-186 -206 0
-207 -187 0
-187 -207 0
-188 -208 0
-208 -188 0
-209 -189 0
-189 -209 0
-212 -192 0
-192 -212 0
-193 -213 0
-194 -214 0
-195 -215 0
-215 -195 0
-196 -216 0
-216 -196 0
-217 -197 0
-197 -217 0
-198 -218 0
-199 -219 0
-220 -160 0
-160 -220 0
-223 -163 0
-163 -223 0
-164 -224 0
-224 -164 0
-166 -168 0
-168 -166 0
-169 -165 0
-165 -169 0
-171 -27 0
-27 -171 0
-28 -172 0
-173 -29 0
-174 -30 0
-175 -31 0
-31 -175 0
-32 -176 0
-176 -32 0
-177 -33 0
-178 -34 0
-34 -178 0
-63 -179 0
-35 -180 0
-66 -64 0
-67 -62 0
-62 -67 0
-83 -85 0
-82 -86 0
-86 -82 0
-128 -130 0
-130 -128 0
-127 -133 0
