projected/problems_b25_r0_d7_m100_s666/b25_d7_r0_s666_071.smt2
(set-logic QF_UF)
(declare-fun A0 () Bool)
(declare-fun A1 () Bool)
(declare-fun A2 () Bool)
(declare-fun A3 () Bool)
(declare-fun A4 () Bool)
(declare-fun A5 () Bool)
(declare-fun A6 () Bool)
(declare-fun A7 () Bool)
(declare-fun A8 () Bool)
(declare-fun A9 () Bool)
(declare-fun A10 () Bool)
(declare-fun A11 () Bool)
(declare-fun A12 () Bool)
(declare-fun A13 () Bool)
(declare-fun A14 () Bool)
(declare-fun A15 () Bool)
(declare-fun A16 () Bool)
(declare-fun A17 () Bool)
(declare-fun A18 () Bool)
(declare-fun A19 () Bool)
(declare-fun A20 () Bool)
(declare-fun A21 () Bool)
(declare-fun A22 () Bool)
(declare-fun A23 () Bool)
(declare-fun A24 () Bool)
(assert (let ((.def_0 (= A4 A2))) (let ((.def_1 (and A23 A0))) (let ((.def_2 (not .def_1))) (let ((.def_3 (or .def_2 .def_0))) (let ((.def_4 (or A14 A21))) (let ((.def_5 (not A1))) (let ((.def_6 (not A15))) (let ((.def_7 (and .def_6 .def_5))) (let ((.def_8 (not .def_7))) (let ((.def_9 (or .def_8 .def_4))) (let ((.def_10 (not .def_9))) (let ((.def_11 (and .def_10 .def_3))) (let ((.def_12 (not .def_11))) (let ((.def_13 (not A23))) (let ((.def_14 (= A5 .def_13))) (let ((.def_15 (not .def_14))) (let ((.def_16 (not A6))) (let ((.def_17 (and A3 .def_16))) (let ((.def_18 (or .def_17 .def_15))) (let ((.def_19 (not A19))) (let ((.def_20 (and .def_19 A20))) (let ((.def_21 (not .def_20))) (let ((.def_22 (and A15 A24))) (let ((.def_23 (not .def_22))) (let ((.def_24 (and .def_23 .def_21))) (let ((.def_25 (not .def_24))) (let ((.def_26 (and .def_25 .def_18))) (let ((.def_27 (and .def_26 .def_12))) (let ((.def_28 (not A11))) (let ((.def_29 (and .def_28 A3))) (let ((.def_30 (not .def_29))) (let ((.def_31 (not A4))) (let ((.def_32 (= .def_31 A0))) (let ((.def_33 (not .def_32))) (let ((.def_34 (or .def_33 .def_30))) (let ((.def_35 (not .def_34))) (let ((.def_36 (or A14 A0))) (let ((.def_37 (not .def_36))) (let ((.def_38 (not A9))) (let ((.def_39 (and A13 .def_38))) (let ((.def_40 (not .def_39))) (let ((.def_41 (= .def_40 .def_37))) (let ((.def_42 (not .def_41))) (let ((.def_43 (and .def_42 .def_35))) (let ((.def_44 (and .def_38 .def_16))) (let ((.def_45 (not A3))) (let ((.def_46 (or .def_19 .def_45))) (let ((.def_47 (and .def_46 .def_44))) (let ((.def_48 (not .def_47))) (let ((.def_49 (or .def_19 A10))) (let ((.def_50 (not .def_49))) (let ((.def_51 (not A20))) (let ((.def_52 (not A10))) (let ((.def_53 (or .def_52 .def_51))) (let ((.def_54 (or .def_53 .def_50))) (let ((.def_55 (not .def_54))) (let ((.def_56 (or .def_55 .def_48))) (let ((.def_57 (or .def_56 .def_43))) (let ((.def_58 (= .def_57 .def_27))) (let ((.def_59 (or .def_45 A7))) (let ((.def_60 (not A12))) (let ((.def_61 (and A12 .def_60))) (let ((.def_62 (not .def_61))) (let ((.def_63 (and .def_62 .def_59))) (let ((.def_64 (or .def_51 A1))) (let ((.def_65 (not .def_64))) (let ((.def_66 (and A17 .def_5))) (let ((.def_67 (or .def_66 .def_65))) (let ((.def_68 (not .def_67))) (let ((.def_69 (and .def_68 .def_63))) (let ((.def_70 (= A24 .def_52))) (let ((.def_71 (not .def_70))) (let ((.def_72 (not A14))) (let ((.def_73 (and A18 .def_72))) (let ((.def_74 (not .def_73))) (let ((.def_75 (and .def_74 .def_71))) (let ((.def_76 (not A21))) (let ((.def_77 (or A10 .def_76))) (let ((.def_78 (not .def_77))) (let ((.def_79 (or .def_5 A4))) (let ((.def_80 (and .def_79 .def_78))) (let ((.def_81 (not .def_80))) (let ((.def_82 (and .def_81 .def_75))) (let ((.def_83 (not .def_82))) (let ((.def_84 (and .def_83 .def_69))) (let ((.def_85 (not A8))) (let ((.def_86 (and .def_85 .def_60))) (let ((.def_87 (and .def_60 .def_28))) (let ((.def_88 (and .def_87 .def_86))) (let ((.def_89 (not .def_88))) (let ((.def_90 (not A2))) (let ((.def_91 (and A12 .def_90))) (let ((.def_92 (not .def_91))) (let ((.def_93 (or .def_38 A3))) (let ((.def_94 (not .def_93))) (let ((.def_95 (or .def_94 .def_92))) (let ((.def_96 (or .def_95 .def_89))) (let ((.def_97 (not .def_96))) (let ((.def_98 (not A16))) (let ((.def_99 (and .def_19 .def_98))) (let ((.def_100 (not A5))) (let ((.def_101 (or .def_100 .def_76))) (let ((.def_102 (not .def_101))) (let ((.def_103 (= .def_102 .def_99))) (let ((.def_104 (not .def_103))) (let ((.def_105 (= A6 .def_85))) (let ((.def_106 (and A21 .def_45))) (let ((.def_107 (not .def_106))) (let ((.def_108 (or .def_107 .def_105))) (let ((.def_109 (not .def_108))) (let ((.def_110 (and .def_109 .def_104))) (let ((.def_111 (and .def_110 .def_97))) (let ((.def_112 (and .def_111 .def_84))) (let ((.def_113 (and .def_112 .def_58))) (let ((.def_114 (not .def_113))) (let ((.def_115 (and A13 .def_52))) (let ((.def_116 (not .def_115))) (let ((.def_117 (and A16 .def_13))) (let ((.def_118 (and .def_117 .def_116))) (let ((.def_119 (not .def_118))) (let ((.def_120 (and .def_6 .def_38))) (let ((.def_121 (or A20 A12))) (let ((.def_122 (not .def_121))) (let ((.def_123 (= .def_122 .def_120))) (let ((.def_124 (not .def_123))) (let ((.def_125 (or .def_124 .def_119))) (let ((.def_126 (not .def_125))) (let ((.def_127 (= A10 .def_6))) (let ((.def_128 (not .def_127))) (let ((.def_129 (and .def_52 .def_31))) (let ((.def_130 (or .def_129 .def_128))) (let ((.def_131 (not .def_130))) (let ((.def_132 (not A24))) (let ((.def_133 (or .def_31 .def_132))) (let ((.def_134 (not .def_133))) (let ((.def_135 (not A18))) (let ((.def_136 (or .def_52 .def_135))) (let ((.def_137 (or .def_136 .def_134))) (let ((.def_138 (not .def_137))) (let ((.def_139 (and .def_138 .def_131))) (let ((.def_140 (not .def_139))) (let ((.def_141 (or .def_140 .def_126))) (let ((.def_142 (not .def_141))) (let ((.def_143 (and .def_52 A12))) (let ((.def_144 (and A13 A18))) (let ((.def_145 (or .def_144 .def_143))) (let ((.def_146 (not .def_145))) (let ((.def_147 (and A11 A23))) (let ((.def_148 (and .def_51 A0))) (let ((.def_149 (not .def_148))) (let ((.def_150 (and .def_149 .def_147))) (let ((.def_151 (not .def_150))) (let ((.def_152 (or .def_151 .def_146))) (let ((.def_153 (not A13))) (let ((.def_154 (and .def_13 .def_153))) (let ((.def_155 (not A22))) (let ((.def_156 (and .def_155 .def_85))) (let ((.def_157 (not .def_156))) (let ((.def_158 (and .def_157 .def_154))) (let ((.def_159 (not .def_158))) (let ((.def_160 (and .def_100 A6))) (let ((.def_161 (not .def_160))) (let ((.def_162 (and A14 .def_28))) (let ((.def_163 (not .def_162))) (let ((.def_164 (or .def_163 .def_161))) (let ((.def_165 (not .def_164))) (let ((.def_166 (and .def_165 .def_159))) (let ((.def_167 (not .def_166))) (let ((.def_168 (or .def_167 .def_152))) (let ((.def_169 (not .def_168))) (let ((.def_170 (or .def_169 .def_142))) (let ((.def_171 (not .def_170))) (let ((.def_172 (= A4 .def_19))) (let ((.def_173 (not .def_172))) (let ((.def_174 (or .def_16 A12))) (let ((.def_175 (or .def_174 .def_173))) (let ((.def_176 (not .def_175))) (let ((.def_177 (or A22 .def_38))) (let ((.def_178 (or .def_28 .def_5))) (let ((.def_179 (and .def_178 .def_177))) (let ((.def_180 (not .def_179))) (let ((.def_181 (or .def_180 .def_176))) (let ((.def_182 (or .def_51 .def_45))) (let ((.def_183 (not .def_182))) (let ((.def_184 (= .def_100 A6))) (let ((.def_185 (= .def_184 .def_183))) (let ((.def_186 (= A2 .def_100))) (let ((.def_187 (and .def_5 A21))) (let ((.def_188 (not .def_187))) (let ((.def_189 (or .def_188 .def_186))) (let ((.def_190 (not .def_189))) (let ((.def_191 (and .def_190 .def_185))) (let ((.def_192 (or .def_191 .def_181))) (let ((.def_193 (or A3 A2))) (let ((.def_194 (or A5 .def_100))) (let ((.def_195 (or .def_194 .def_193))) (let ((.def_196 (not .def_195))) (let ((.def_197 (and .def_5 .def_52))) (let ((.def_198 (not .def_197))) (let ((.def_199 (or .def_5 .def_19))) (let ((.def_200 (or .def_199 .def_198))) (let ((.def_201 (or .def_200 .def_196))) (let ((.def_202 (or A8 A9))) (let ((.def_203 (not .def_202))) (let ((.def_204 (and .def_28 .def_31))) (let ((.def_205 (not .def_204))) (let ((.def_206 (or .def_205 .def_203))) (let ((.def_207 (and A20 .def_13))) (let ((.def_208 (not .def_207))) (let ((.def_209 (or A16 A23))) (let ((.def_210 (not .def_209))) (let ((.def_211 (or .def_210 .def_208))) (let ((.def_212 (not .def_211))) (let ((.def_213 (and .def_212 .def_206))) (let ((.def_214 (not .def_213))) (let ((.def_215 (and .def_214 .def_201))) (let ((.def_216 (or .def_215 .def_192))) (let ((.def_217 (not .def_216))) (let ((.def_218 (or .def_217 .def_171))) (let ((.def_219 (not .def_218))) (let ((.def_220 (and .def_219 .def_114))) .def_220))))))))))))))))))))))))))))))))))))))))))))))))))))))))))))))))))))))))))))))))))))))))))))))))))))))))))))))))))))))))))))))))))))))))))))))))))))))))))))))))))))))))))))))))))))))))))))))))))))))))))))))))))))))))))))))
(check-sat)
